Minimize
	value: tt

Subject to
s_1_12 = 1
tt + 1000 s_1_1 > 0.0
tt - t_1_1 - 1000.000000 s_1_1  > -985.453000
tt + 1000 s_2_1 > 0.0
tt - t_2_1 - 1000.000000 s_2_1  > -982.945400
tt + 1000 s_1_2 > 0.0
tt - t_1_2 - 1000.000000 s_1_2  > -991.457300
tt + 1000 s_2_2 > 0.0
tt - t_2_2 - 1000.000000 s_2_2  > -990.766800
tt + 1000 s_1_3 > 0.0
tt - t_1_3 - 1000.000000 s_1_3  > -989.981200
tt + 1000 s_2_3 > 0.0
tt - t_2_3 - 1000.000000 s_2_3  > -983.251700
tt + 1000 s_1_4 > 0.0
tt - t_1_4 - 1000.000000 s_1_4  > -985.775600
tt + 1000 s_2_4 > 0.0
tt - t_2_4 - 1000.000000 s_2_4  > -978.921100
tt + 1000 s_1_5 > 0.0
tt - t_1_5 - 1000.000000 s_1_5  > -991.498300
tt + 1000 s_2_5 > 0.0
tt - t_2_5 - 1000.000000 s_2_5  > -991.144400
tt + 1000 s_1_6 > 0.0
tt - t_1_6 - 1000.000000 s_1_6  > -990.935800
tt + 1000 s_2_6 > 0.0
tt - t_2_6 - 1000.000000 s_2_6  > -986.058600
tt + 1000 s_1_7 > 0.0
tt - t_1_7 - 1000.000000 s_1_7  > -989.959600
tt + 1000 s_2_7 > 0.0
tt - t_2_7 - 1000.000000 s_2_7  > -982.780000
tt + 1000 s_1_8 > 0.0
tt - t_1_8 - 1000.000000 s_1_8  > -987.898900
tt + 1000 s_2_8 > 0.0
tt - t_2_8 - 1000.000000 s_2_8  > -980.728700
tt + 1000 s_1_9 > 0.0
tt - t_1_9 - 1000.000000 s_1_9  > -986.612400
tt + 1000 s_2_9 > 0.0
tt - t_2_9 - 1000.000000 s_2_9  > -978.483300
tt + 1000 s_1_10 > 0.0
tt - t_1_10 - 1000.000000 s_1_10  > -998.682400
tt + 1000 s_2_10 > 0.0
tt - t_2_10 - 1000.000000 s_2_10  > -994.060300
tt + 1000 s_1_11 > 0.0
tt - t_1_11 - 1000.000000 s_1_11  > -993.730900
tt + 1000 s_2_11 > 0.0
tt - t_2_11 - 1000.000000 s_2_11  > -993.639000
tt + 1000 s_1_12 > 0.0
tt - t_1_12 - 1000.000000 s_1_12  > -999.335200
tt + 1000 s_2_12 > 0.0
tt - t_2_12 - 1000.000000 s_2_12  > -997.794111
s_1_1 + s_2_1 = 1
s_1_2 + s_2_2 = 1
s_1_3 + s_2_3 = 1
s_1_4 + s_2_4 = 1
s_1_5 + s_2_5 = 1
s_1_6 + s_2_6 = 1
s_1_7 + s_2_7 = 1
s_1_8 + s_2_8 = 1
s_1_9 + s_2_9 = 1
s_1_10 + s_2_10 = 1
s_1_11 + s_2_11 = 1
s_1_12 + s_2_12 = 1
s_1_1 + s_1_2 + 1000 r_1_1_2 >= 2
- s_1_1 - s_1_2 - 1000 r_1_1_2 >= -1001
t_1_1 - t_1_2 - 1000.000000 u_1_1_2 - 0.000000 s_1_2  + 2000.000000 r_1_1_2 > -991.457300
s_2_1 + s_2_2 + 1000 r_2_1_2 >= 2
- s_2_1 - s_2_2 - 1000 r_2_1_2 >= -1001
t_2_1 - t_2_2 - 1000.000000 u_2_1_2 - 0.000000 s_2_2  + 2000.000000 r_2_1_2 > -990.766800
s_1_1 + s_1_3 + 1000 r_1_1_3 >= 2
- s_1_1 - s_1_3 - 1000 r_1_1_3 >= -1001
t_1_1 - t_1_3 - 1000.000000 u_1_1_3 - 0.000000 s_1_3  + 2000.000000 r_1_1_3 > -989.981200
s_2_1 + s_2_3 + 1000 r_2_1_3 >= 2
- s_2_1 - s_2_3 - 1000 r_2_1_3 >= -1001
t_2_1 - t_2_3 - 1000.000000 u_2_1_3 - 0.000000 s_2_3  + 2000.000000 r_2_1_3 > -983.251700
s_1_1 + s_1_4 + 1000 r_1_1_4 >= 2
- s_1_1 - s_1_4 - 1000 r_1_1_4 >= -1001
t_1_1 - t_1_4 - 1000.000000 u_1_1_4 - 0.000000 s_1_4  + 2000.000000 r_1_1_4 > -985.775600
s_2_1 + s_2_4 + 1000 r_2_1_4 >= 2
- s_2_1 - s_2_4 - 1000 r_2_1_4 >= -1001
t_2_1 - t_2_4 - 1000.000000 u_2_1_4 - 0.000000 s_2_4  + 2000.000000 r_2_1_4 > -978.921100
s_1_1 + s_1_5 + 1000 r_1_1_5 >= 2
- s_1_1 - s_1_5 - 1000 r_1_1_5 >= -1001
t_1_1 - t_1_5 - 1000.000000 u_1_1_5 - 0.000000 s_1_5  + 2000.000000 r_1_1_5 > -991.498300
s_2_1 + s_2_5 + 1000 r_2_1_5 >= 2
- s_2_1 - s_2_5 - 1000 r_2_1_5 >= -1001
t_2_1 - t_2_5 - 1000.000000 u_2_1_5 - 0.000000 s_2_5  + 2000.000000 r_2_1_5 > -991.144400
s_1_1 + s_1_6 + 1000 r_1_1_6 >= 2
- s_1_1 - s_1_6 - 1000 r_1_1_6 >= -1001
t_1_1 - t_1_6 - 1000.000000 u_1_1_6 - 0.000000 s_1_6  + 2000.000000 r_1_1_6 > -990.935800
s_2_1 + s_2_6 + 1000 r_2_1_6 >= 2
- s_2_1 - s_2_6 - 1000 r_2_1_6 >= -1001
t_2_1 - t_2_6 - 1000.000000 u_2_1_6 - 0.000000 s_2_6  + 2000.000000 r_2_1_6 > -986.058600
s_1_1 + s_1_7 + 1000 r_1_1_7 >= 2
- s_1_1 - s_1_7 - 1000 r_1_1_7 >= -1001
t_1_1 - t_1_7 - 1000.000000 u_1_1_7 - 0.000000 s_1_7  + 2000.000000 r_1_1_7 > -989.959600
s_2_1 + s_2_7 + 1000 r_2_1_7 >= 2
- s_2_1 - s_2_7 - 1000 r_2_1_7 >= -1001
t_2_1 - t_2_7 - 1000.000000 u_2_1_7 - 0.000000 s_2_7  + 2000.000000 r_2_1_7 > -982.780000
s_1_1 + s_1_8 + 1000 r_1_1_8 >= 2
- s_1_1 - s_1_8 - 1000 r_1_1_8 >= -1001
t_1_1 - t_1_8 - 1000.000000 u_1_1_8 - 0.000000 s_1_8  + 2000.000000 r_1_1_8 > -987.898900
s_2_1 + s_2_8 + 1000 r_2_1_8 >= 2
- s_2_1 - s_2_8 - 1000 r_2_1_8 >= -1001
t_2_1 - t_2_8 - 1000.000000 u_2_1_8 - 0.000000 s_2_8  + 2000.000000 r_2_1_8 > -980.728700
s_1_1 + s_1_9 + 1000 r_1_1_9 >= 2
- s_1_1 - s_1_9 - 1000 r_1_1_9 >= -1001
t_1_1 - t_1_9 - 1000.000000 u_1_1_9 - 0.000000 s_1_9  + 2000.000000 r_1_1_9 > -986.612400
s_2_1 + s_2_9 + 1000 r_2_1_9 >= 2
- s_2_1 - s_2_9 - 1000 r_2_1_9 >= -1001
t_2_1 - t_2_9 - 1000.000000 u_2_1_9 - 0.000000 s_2_9  + 2000.000000 r_2_1_9 > -978.483300
s_1_1 + s_1_10 + 1000 r_1_1_10 >= 2
- s_1_1 - s_1_10 - 1000 r_1_1_10 >= -1001
t_1_1 - t_1_10 - 1000.000000 u_1_1_10 - 0.000000 s_1_10  + 2000.000000 r_1_1_10 > -998.682400
s_2_1 + s_2_10 + 1000 r_2_1_10 >= 2
- s_2_1 - s_2_10 - 1000 r_2_1_10 >= -1001
t_2_1 - t_2_10 - 1000.000000 u_2_1_10 - 0.000000 s_2_10  + 2000.000000 r_2_1_10 > -994.060300
s_1_1 + s_1_11 + 1000 r_1_1_11 >= 2
- s_1_1 - s_1_11 - 1000 r_1_1_11 >= -1001
t_1_1 - t_1_11 - 1000.000000 u_1_1_11 - 0.000000 s_1_11  + 2000.000000 r_1_1_11 > -993.730900
s_2_1 + s_2_11 + 1000 r_2_1_11 >= 2
- s_2_1 - s_2_11 - 1000 r_2_1_11 >= -1001
t_2_1 - t_2_11 - 1000.000000 u_2_1_11 - 0.000000 s_2_11  + 2000.000000 r_2_1_11 > -993.639000
t_1_12 - t_1_1 - 1000.000000 s_1_1  > -985.453000
t_1_12 - t_2_1 - 1000.000000 s_2_1  > -982.945400
t_2_12 - t_1_1 - 1000.000000 s_1_1  > -985.453000
t_2_12 - t_2_1 - 1000.000000 s_2_1  > -982.945400
s_1_2 + s_1_1 + 1000 r_1_1_2 >= 2
- s_1_2 - s_1_1 - 1000 r_1_1_2 >= -1001
t_1_2 - t_1_1 + 1000.000000 u_1_1_2 - 0.000000 s_1_1  + 2000.000000 r_1_1_2 > 14.547000
s_2_2 + s_2_1 + 1000 r_2_1_2 >= 2
- s_2_2 - s_2_1 - 1000 r_2_1_2 >= -1001
t_2_2 - t_2_1 + 1000.000000 u_2_1_2 - 0.000000 s_2_1  + 2000.000000 r_2_1_2 > 17.054600
t_1_3 - t_1_2 - 1000.000000 s_1_2  > -991.457300
t_1_3 - t_2_2 - 1000.000000 s_2_2  > -990.766800
t_2_3 - t_1_2 - 1000.000000 s_1_2  > -991.457300
t_2_3 - t_2_2 - 1000.000000 s_2_2  > -990.766800
s_1_2 + s_1_5 + 1000 r_1_2_5 >= 2
- s_1_2 - s_1_5 - 1000 r_1_2_5 >= -1001
t_1_2 - t_1_5 - 1000.000000 u_1_2_5 - 0.000000 s_1_5  + 2000.000000 r_1_2_5 > -991.498300
s_2_2 + s_2_5 + 1000 r_2_2_5 >= 2
- s_2_2 - s_2_5 - 1000 r_2_2_5 >= -1001
t_2_2 - t_2_5 - 1000.000000 u_2_2_5 - 0.000000 s_2_5  + 2000.000000 r_2_2_5 > -991.144400
s_1_2 + s_1_6 + 1000 r_1_2_6 >= 2
- s_1_2 - s_1_6 - 1000 r_1_2_6 >= -1001
t_1_2 - t_1_6 - 1000.000000 u_1_2_6 - 0.000000 s_1_6  + 2000.000000 r_1_2_6 > -990.935800
s_2_2 + s_2_6 + 1000 r_2_2_6 >= 2
- s_2_2 - s_2_6 - 1000 r_2_2_6 >= -1001
t_2_2 - t_2_6 - 1000.000000 u_2_2_6 - 0.000000 s_2_6  + 2000.000000 r_2_2_6 > -986.058600
s_1_2 + s_1_7 + 1000 r_1_2_7 >= 2
- s_1_2 - s_1_7 - 1000 r_1_2_7 >= -1001
t_1_2 - t_1_7 - 1000.000000 u_1_2_7 - 0.000000 s_1_7  + 2000.000000 r_1_2_7 > -989.959600
s_2_2 + s_2_7 + 1000 r_2_2_7 >= 2
- s_2_2 - s_2_7 - 1000 r_2_2_7 >= -1001
t_2_2 - t_2_7 - 1000.000000 u_2_2_7 - 0.000000 s_2_7  + 2000.000000 r_2_2_7 > -982.780000
s_1_2 + s_1_8 + 1000 r_1_2_8 >= 2
- s_1_2 - s_1_8 - 1000 r_1_2_8 >= -1001
t_1_2 - t_1_8 - 1000.000000 u_1_2_8 - 0.000000 s_1_8  + 2000.000000 r_1_2_8 > -987.898900
s_2_2 + s_2_8 + 1000 r_2_2_8 >= 2
- s_2_2 - s_2_8 - 1000 r_2_2_8 >= -1001
t_2_2 - t_2_8 - 1000.000000 u_2_2_8 - 0.000000 s_2_8  + 2000.000000 r_2_2_8 > -980.728700
s_1_2 + s_1_9 + 1000 r_1_2_9 >= 2
- s_1_2 - s_1_9 - 1000 r_1_2_9 >= -1001
t_1_2 - t_1_9 - 1000.000000 u_1_2_9 - 0.000000 s_1_9  + 2000.000000 r_1_2_9 > -986.612400
s_2_2 + s_2_9 + 1000 r_2_2_9 >= 2
- s_2_2 - s_2_9 - 1000 r_2_2_9 >= -1001
t_2_2 - t_2_9 - 1000.000000 u_2_2_9 - 0.000000 s_2_9  + 2000.000000 r_2_2_9 > -978.483300
s_1_2 + s_1_10 + 1000 r_1_2_10 >= 2
- s_1_2 - s_1_10 - 1000 r_1_2_10 >= -1001
t_1_2 - t_1_10 - 1000.000000 u_1_2_10 - 0.000000 s_1_10  + 2000.000000 r_1_2_10 > -998.682400
s_2_2 + s_2_10 + 1000 r_2_2_10 >= 2
- s_2_2 - s_2_10 - 1000 r_2_2_10 >= -1001
t_2_2 - t_2_10 - 1000.000000 u_2_2_10 - 0.000000 s_2_10  + 2000.000000 r_2_2_10 > -994.060300
s_1_2 + s_1_11 + 1000 r_1_2_11 >= 2
- s_1_2 - s_1_11 - 1000 r_1_2_11 >= -1001
t_1_2 - t_1_11 - 1000.000000 u_1_2_11 - 0.000000 s_1_11  + 2000.000000 r_1_2_11 > -993.730900
s_2_2 + s_2_11 + 1000 r_2_2_11 >= 2
- s_2_2 - s_2_11 - 1000 r_2_2_11 >= -1001
t_2_2 - t_2_11 - 1000.000000 u_2_2_11 - 0.000000 s_2_11  + 2000.000000 r_2_2_11 > -993.639000
s_1_3 + s_1_1 + 1000 r_1_1_3 >= 2
- s_1_3 - s_1_1 - 1000 r_1_1_3 >= -1001
t_1_3 - t_1_1 + 1000.000000 u_1_1_3 - 0.000000 s_1_1  + 2000.000000 r_1_1_3 > 14.547000
s_2_3 + s_2_1 + 1000 r_2_1_3 >= 2
- s_2_3 - s_2_1 - 1000 r_2_1_3 >= -1001
t_2_3 - t_2_1 + 1000.000000 u_2_1_3 - 0.000000 s_2_1  + 2000.000000 r_2_1_3 > 17.054600
t_1_4 - t_1_3 - 1000.000000 s_1_3  > -989.981200
t_1_4 - t_2_3 - 1000.000000 s_2_3  > -983.251700
t_2_4 - t_1_3 - 1000.000000 s_1_3  > -989.981200
t_2_4 - t_2_3 - 1000.000000 s_2_3  > -983.251700
s_1_3 + s_1_5 + 1000 r_1_3_5 >= 2
- s_1_3 - s_1_5 - 1000 r_1_3_5 >= -1001
t_1_3 - t_1_5 - 1000.000000 u_1_3_5 - 0.000000 s_1_5  + 2000.000000 r_1_3_5 > -991.498300
s_2_3 + s_2_5 + 1000 r_2_3_5 >= 2
- s_2_3 - s_2_5 - 1000 r_2_3_5 >= -1001
t_2_3 - t_2_5 - 1000.000000 u_2_3_5 - 0.000000 s_2_5  + 2000.000000 r_2_3_5 > -991.144400
s_1_3 + s_1_6 + 1000 r_1_3_6 >= 2
- s_1_3 - s_1_6 - 1000 r_1_3_6 >= -1001
t_1_3 - t_1_6 - 1000.000000 u_1_3_6 - 0.000000 s_1_6  + 2000.000000 r_1_3_6 > -990.935800
s_2_3 + s_2_6 + 1000 r_2_3_6 >= 2
- s_2_3 - s_2_6 - 1000 r_2_3_6 >= -1001
t_2_3 - t_2_6 - 1000.000000 u_2_3_6 - 0.000000 s_2_6  + 2000.000000 r_2_3_6 > -986.058600
s_1_3 + s_1_7 + 1000 r_1_3_7 >= 2
- s_1_3 - s_1_7 - 1000 r_1_3_7 >= -1001
t_1_3 - t_1_7 - 1000.000000 u_1_3_7 - 0.000000 s_1_7  + 2000.000000 r_1_3_7 > -989.959600
s_2_3 + s_2_7 + 1000 r_2_3_7 >= 2
- s_2_3 - s_2_7 - 1000 r_2_3_7 >= -1001
t_2_3 - t_2_7 - 1000.000000 u_2_3_7 - 0.000000 s_2_7  + 2000.000000 r_2_3_7 > -982.780000
s_1_3 + s_1_8 + 1000 r_1_3_8 >= 2
- s_1_3 - s_1_8 - 1000 r_1_3_8 >= -1001
t_1_3 - t_1_8 - 1000.000000 u_1_3_8 - 0.000000 s_1_8  + 2000.000000 r_1_3_8 > -987.898900
s_2_3 + s_2_8 + 1000 r_2_3_8 >= 2
- s_2_3 - s_2_8 - 1000 r_2_3_8 >= -1001
t_2_3 - t_2_8 - 1000.000000 u_2_3_8 - 0.000000 s_2_8  + 2000.000000 r_2_3_8 > -980.728700
s_1_3 + s_1_9 + 1000 r_1_3_9 >= 2
- s_1_3 - s_1_9 - 1000 r_1_3_9 >= -1001
t_1_3 - t_1_9 - 1000.000000 u_1_3_9 - 0.000000 s_1_9  + 2000.000000 r_1_3_9 > -986.612400
s_2_3 + s_2_9 + 1000 r_2_3_9 >= 2
- s_2_3 - s_2_9 - 1000 r_2_3_9 >= -1001
t_2_3 - t_2_9 - 1000.000000 u_2_3_9 - 0.000000 s_2_9  + 2000.000000 r_2_3_9 > -978.483300
s_1_3 + s_1_10 + 1000 r_1_3_10 >= 2
- s_1_3 - s_1_10 - 1000 r_1_3_10 >= -1001
t_1_3 - t_1_10 - 1000.000000 u_1_3_10 - 0.000000 s_1_10  + 2000.000000 r_1_3_10 > -998.682400
s_2_3 + s_2_10 + 1000 r_2_3_10 >= 2
- s_2_3 - s_2_10 - 1000 r_2_3_10 >= -1001
t_2_3 - t_2_10 - 1000.000000 u_2_3_10 - 0.000000 s_2_10  + 2000.000000 r_2_3_10 > -994.060300
s_1_3 + s_1_11 + 1000 r_1_3_11 >= 2
- s_1_3 - s_1_11 - 1000 r_1_3_11 >= -1001
t_1_3 - t_1_11 - 1000.000000 u_1_3_11 - 0.000000 s_1_11  + 2000.000000 r_1_3_11 > -993.730900
s_2_3 + s_2_11 + 1000 r_2_3_11 >= 2
- s_2_3 - s_2_11 - 1000 r_2_3_11 >= -1001
t_2_3 - t_2_11 - 1000.000000 u_2_3_11 - 0.000000 s_2_11  + 2000.000000 r_2_3_11 > -993.639000
s_1_4 + s_1_1 + 1000 r_1_1_4 >= 2
- s_1_4 - s_1_1 - 1000 r_1_1_4 >= -1001
t_1_4 - t_1_1 + 1000.000000 u_1_1_4 - 0.000000 s_1_1  + 2000.000000 r_1_1_4 > 14.547000
s_2_4 + s_2_1 + 1000 r_2_1_4 >= 2
- s_2_4 - s_2_1 - 1000 r_2_1_4 >= -1001
t_2_4 - t_2_1 + 1000.000000 u_2_1_4 - 0.000000 s_2_1  + 2000.000000 r_2_1_4 > 17.054600
s_1_4 + s_1_5 + 1000 r_1_4_5 >= 2
- s_1_4 - s_1_5 - 1000 r_1_4_5 >= -1001
t_1_4 - t_1_5 - 1000.000000 u_1_4_5 - 0.000000 s_1_5  + 2000.000000 r_1_4_5 > -991.498300
s_2_4 + s_2_5 + 1000 r_2_4_5 >= 2
- s_2_4 - s_2_5 - 1000 r_2_4_5 >= -1001
t_2_4 - t_2_5 - 1000.000000 u_2_4_5 - 0.000000 s_2_5  + 2000.000000 r_2_4_5 > -991.144400
s_1_4 + s_1_6 + 1000 r_1_4_6 >= 2
- s_1_4 - s_1_6 - 1000 r_1_4_6 >= -1001
t_1_4 - t_1_6 - 1000.000000 u_1_4_6 - 0.000000 s_1_6  + 2000.000000 r_1_4_6 > -990.935800
s_2_4 + s_2_6 + 1000 r_2_4_6 >= 2
- s_2_4 - s_2_6 - 1000 r_2_4_6 >= -1001
t_2_4 - t_2_6 - 1000.000000 u_2_4_6 - 0.000000 s_2_6  + 2000.000000 r_2_4_6 > -986.058600
s_1_4 + s_1_7 + 1000 r_1_4_7 >= 2
- s_1_4 - s_1_7 - 1000 r_1_4_7 >= -1001
t_1_4 - t_1_7 - 1000.000000 u_1_4_7 - 0.000000 s_1_7  + 2000.000000 r_1_4_7 > -989.959600
s_2_4 + s_2_7 + 1000 r_2_4_7 >= 2
- s_2_4 - s_2_7 - 1000 r_2_4_7 >= -1001
t_2_4 - t_2_7 - 1000.000000 u_2_4_7 - 0.000000 s_2_7  + 2000.000000 r_2_4_7 > -982.780000
s_1_4 + s_1_8 + 1000 r_1_4_8 >= 2
- s_1_4 - s_1_8 - 1000 r_1_4_8 >= -1001
t_1_4 - t_1_8 - 1000.000000 u_1_4_8 - 0.000000 s_1_8  + 2000.000000 r_1_4_8 > -987.898900
s_2_4 + s_2_8 + 1000 r_2_4_8 >= 2
- s_2_4 - s_2_8 - 1000 r_2_4_8 >= -1001
t_2_4 - t_2_8 - 1000.000000 u_2_4_8 - 0.000000 s_2_8  + 2000.000000 r_2_4_8 > -980.728700
s_1_4 + s_1_9 + 1000 r_1_4_9 >= 2
- s_1_4 - s_1_9 - 1000 r_1_4_9 >= -1001
t_1_4 - t_1_9 - 1000.000000 u_1_4_9 - 0.000000 s_1_9  + 2000.000000 r_1_4_9 > -986.612400
s_2_4 + s_2_9 + 1000 r_2_4_9 >= 2
- s_2_4 - s_2_9 - 1000 r_2_4_9 >= -1001
t_2_4 - t_2_9 - 1000.000000 u_2_4_9 - 0.000000 s_2_9  + 2000.000000 r_2_4_9 > -978.483300
s_1_4 + s_1_10 + 1000 r_1_4_10 >= 2
- s_1_4 - s_1_10 - 1000 r_1_4_10 >= -1001
t_1_4 - t_1_10 - 1000.000000 u_1_4_10 - 0.000000 s_1_10  + 2000.000000 r_1_4_10 > -998.682400
s_2_4 + s_2_10 + 1000 r_2_4_10 >= 2
- s_2_4 - s_2_10 - 1000 r_2_4_10 >= -1001
t_2_4 - t_2_10 - 1000.000000 u_2_4_10 - 0.000000 s_2_10  + 2000.000000 r_2_4_10 > -994.060300
s_1_4 + s_1_11 + 1000 r_1_4_11 >= 2
- s_1_4 - s_1_11 - 1000 r_1_4_11 >= -1001
t_1_4 - t_1_11 - 1000.000000 u_1_4_11 - 0.000000 s_1_11  + 2000.000000 r_1_4_11 > -993.730900
s_2_4 + s_2_11 + 1000 r_2_4_11 >= 2
- s_2_4 - s_2_11 - 1000 r_2_4_11 >= -1001
t_2_4 - t_2_11 - 1000.000000 u_2_4_11 - 0.000000 s_2_11  + 2000.000000 r_2_4_11 > -993.639000
t_1_12 - t_1_4 - 1000.000000 s_1_4  > -985.775600
t_1_12 - t_2_4 - 1000.000000 s_2_4  > -978.921100
t_2_12 - t_1_4 - 1000.000000 s_1_4  > -985.775600
t_2_12 - t_2_4 - 1000.000000 s_2_4  > -978.921100
s_1_5 + s_1_1 + 1000 r_1_1_5 >= 2
- s_1_5 - s_1_1 - 1000 r_1_1_5 >= -1001
t_1_5 - t_1_1 + 1000.000000 u_1_1_5 - 0.000000 s_1_1  + 2000.000000 r_1_1_5 > 14.547000
s_2_5 + s_2_1 + 1000 r_2_1_5 >= 2
- s_2_5 - s_2_1 - 1000 r_2_1_5 >= -1001
t_2_5 - t_2_1 + 1000.000000 u_2_1_5 - 0.000000 s_2_1  + 2000.000000 r_2_1_5 > 17.054600
s_1_5 + s_1_2 + 1000 r_1_2_5 >= 2
- s_1_5 - s_1_2 - 1000 r_1_2_5 >= -1001
t_1_5 - t_1_2 + 1000.000000 u_1_2_5 - 0.000000 s_1_2  + 2000.000000 r_1_2_5 > 8.542700
s_2_5 + s_2_2 + 1000 r_2_2_5 >= 2
- s_2_5 - s_2_2 - 1000 r_2_2_5 >= -1001
t_2_5 - t_2_2 + 1000.000000 u_2_2_5 - 0.000000 s_2_2  + 2000.000000 r_2_2_5 > 9.233200
s_1_5 + s_1_3 + 1000 r_1_3_5 >= 2
- s_1_5 - s_1_3 - 1000 r_1_3_5 >= -1001
t_1_5 - t_1_3 + 1000.000000 u_1_3_5 - 0.000000 s_1_3  + 2000.000000 r_1_3_5 > 10.018800
s_2_5 + s_2_3 + 1000 r_2_3_5 >= 2
- s_2_5 - s_2_3 - 1000 r_2_3_5 >= -1001
t_2_5 - t_2_3 + 1000.000000 u_2_3_5 - 0.000000 s_2_3  + 2000.000000 r_2_3_5 > 16.748300
s_1_5 + s_1_4 + 1000 r_1_4_5 >= 2
- s_1_5 - s_1_4 - 1000 r_1_4_5 >= -1001
t_1_5 - t_1_4 + 1000.000000 u_1_4_5 - 0.000000 s_1_4  + 2000.000000 r_1_4_5 > 14.224400
s_2_5 + s_2_4 + 1000 r_2_4_5 >= 2
- s_2_5 - s_2_4 - 1000 r_2_4_5 >= -1001
t_2_5 - t_2_4 + 1000.000000 u_2_4_5 - 0.000000 s_2_4  + 2000.000000 r_2_4_5 > 21.078900
t_1_6 - t_1_5 - 1000.000000 s_1_5  > -991.498300
t_1_6 - t_2_5 - 1000.000000 s_2_5  > -991.144400
t_2_6 - t_1_5 - 1000.000000 s_1_5  > -991.498300
t_2_6 - t_2_5 - 1000.000000 s_2_5  > -991.144400
s_1_5 + s_1_10 + 1000 r_1_5_10 >= 2
- s_1_5 - s_1_10 - 1000 r_1_5_10 >= -1001
t_1_5 - t_1_10 - 1000.000000 u_1_5_10 - 0.000000 s_1_10  + 2000.000000 r_1_5_10 > -998.682400
s_2_5 + s_2_10 + 1000 r_2_5_10 >= 2
- s_2_5 - s_2_10 - 1000 r_2_5_10 >= -1001
t_2_5 - t_2_10 - 1000.000000 u_2_5_10 - 0.000000 s_2_10  + 2000.000000 r_2_5_10 > -994.060300
s_1_5 + s_1_11 + 1000 r_1_5_11 >= 2
- s_1_5 - s_1_11 - 1000 r_1_5_11 >= -1001
t_1_5 - t_1_11 - 1000.000000 u_1_5_11 - 0.000000 s_1_11  + 2000.000000 r_1_5_11 > -993.730900
s_2_5 + s_2_11 + 1000 r_2_5_11 >= 2
- s_2_5 - s_2_11 - 1000 r_2_5_11 >= -1001
t_2_5 - t_2_11 - 1000.000000 u_2_5_11 - 0.000000 s_2_11  + 2000.000000 r_2_5_11 > -993.639000
s_1_6 + s_1_1 + 1000 r_1_1_6 >= 2
- s_1_6 - s_1_1 - 1000 r_1_1_6 >= -1001
t_1_6 - t_1_1 + 1000.000000 u_1_1_6 - 0.000000 s_1_1  + 2000.000000 r_1_1_6 > 14.547000
s_2_6 + s_2_1 + 1000 r_2_1_6 >= 2
- s_2_6 - s_2_1 - 1000 r_2_1_6 >= -1001
t_2_6 - t_2_1 + 1000.000000 u_2_1_6 - 0.000000 s_2_1  + 2000.000000 r_2_1_6 > 17.054600
s_1_6 + s_1_2 + 1000 r_1_2_6 >= 2
- s_1_6 - s_1_2 - 1000 r_1_2_6 >= -1001
t_1_6 - t_1_2 + 1000.000000 u_1_2_6 - 0.000000 s_1_2  + 2000.000000 r_1_2_6 > 8.542700
s_2_6 + s_2_2 + 1000 r_2_2_6 >= 2
- s_2_6 - s_2_2 - 1000 r_2_2_6 >= -1001
t_2_6 - t_2_2 + 1000.000000 u_2_2_6 - 0.000000 s_2_2  + 2000.000000 r_2_2_6 > 9.233200
s_1_6 + s_1_3 + 1000 r_1_3_6 >= 2
- s_1_6 - s_1_3 - 1000 r_1_3_6 >= -1001
t_1_6 - t_1_3 + 1000.000000 u_1_3_6 - 0.000000 s_1_3  + 2000.000000 r_1_3_6 > 10.018800
s_2_6 + s_2_3 + 1000 r_2_3_6 >= 2
- s_2_6 - s_2_3 - 1000 r_2_3_6 >= -1001
t_2_6 - t_2_3 + 1000.000000 u_2_3_6 - 0.000000 s_2_3  + 2000.000000 r_2_3_6 > 16.748300
s_1_6 + s_1_4 + 1000 r_1_4_6 >= 2
- s_1_6 - s_1_4 - 1000 r_1_4_6 >= -1001
t_1_6 - t_1_4 + 1000.000000 u_1_4_6 - 0.000000 s_1_4  + 2000.000000 r_1_4_6 > 14.224400
s_2_6 + s_2_4 + 1000 r_2_4_6 >= 2
- s_2_6 - s_2_4 - 1000 r_2_4_6 >= -1001
t_2_6 - t_2_4 + 1000.000000 u_2_4_6 - 0.000000 s_2_4  + 2000.000000 r_2_4_6 > 21.078900
t_1_7 - t_1_6 - 1000.000000 s_1_6  > -990.935800
t_1_7 - t_2_6 - 1000.000000 s_2_6  > -986.058600
t_2_7 - t_1_6 - 1000.000000 s_1_6  > -990.935800
t_2_7 - t_2_6 - 1000.000000 s_2_6  > -986.058600
s_1_6 + s_1_10 + 1000 r_1_6_10 >= 2
- s_1_6 - s_1_10 - 1000 r_1_6_10 >= -1001
t_1_6 - t_1_10 - 1000.000000 u_1_6_10 - 0.000000 s_1_10  + 2000.000000 r_1_6_10 > -998.682400
s_2_6 + s_2_10 + 1000 r_2_6_10 >= 2
- s_2_6 - s_2_10 - 1000 r_2_6_10 >= -1001
t_2_6 - t_2_10 - 1000.000000 u_2_6_10 - 0.000000 s_2_10  + 2000.000000 r_2_6_10 > -994.060300
s_1_6 + s_1_11 + 1000 r_1_6_11 >= 2
- s_1_6 - s_1_11 - 1000 r_1_6_11 >= -1001
t_1_6 - t_1_11 - 1000.000000 u_1_6_11 - 0.000000 s_1_11  + 2000.000000 r_1_6_11 > -993.730900
s_2_6 + s_2_11 + 1000 r_2_6_11 >= 2
- s_2_6 - s_2_11 - 1000 r_2_6_11 >= -1001
t_2_6 - t_2_11 - 1000.000000 u_2_6_11 - 0.000000 s_2_11  + 2000.000000 r_2_6_11 > -993.639000
s_1_7 + s_1_1 + 1000 r_1_1_7 >= 2
- s_1_7 - s_1_1 - 1000 r_1_1_7 >= -1001
t_1_7 - t_1_1 + 1000.000000 u_1_1_7 - 0.000000 s_1_1  + 2000.000000 r_1_1_7 > 14.547000
s_2_7 + s_2_1 + 1000 r_2_1_7 >= 2
- s_2_7 - s_2_1 - 1000 r_2_1_7 >= -1001
t_2_7 - t_2_1 + 1000.000000 u_2_1_7 - 0.000000 s_2_1  + 2000.000000 r_2_1_7 > 17.054600
s_1_7 + s_1_2 + 1000 r_1_2_7 >= 2
- s_1_7 - s_1_2 - 1000 r_1_2_7 >= -1001
t_1_7 - t_1_2 + 1000.000000 u_1_2_7 - 0.000000 s_1_2  + 2000.000000 r_1_2_7 > 8.542700
s_2_7 + s_2_2 + 1000 r_2_2_7 >= 2
- s_2_7 - s_2_2 - 1000 r_2_2_7 >= -1001
t_2_7 - t_2_2 + 1000.000000 u_2_2_7 - 0.000000 s_2_2  + 2000.000000 r_2_2_7 > 9.233200
s_1_7 + s_1_3 + 1000 r_1_3_7 >= 2
- s_1_7 - s_1_3 - 1000 r_1_3_7 >= -1001
t_1_7 - t_1_3 + 1000.000000 u_1_3_7 - 0.000000 s_1_3  + 2000.000000 r_1_3_7 > 10.018800
s_2_7 + s_2_3 + 1000 r_2_3_7 >= 2
- s_2_7 - s_2_3 - 1000 r_2_3_7 >= -1001
t_2_7 - t_2_3 + 1000.000000 u_2_3_7 - 0.000000 s_2_3  + 2000.000000 r_2_3_7 > 16.748300
s_1_7 + s_1_4 + 1000 r_1_4_7 >= 2
- s_1_7 - s_1_4 - 1000 r_1_4_7 >= -1001
t_1_7 - t_1_4 + 1000.000000 u_1_4_7 - 0.000000 s_1_4  + 2000.000000 r_1_4_7 > 14.224400
s_2_7 + s_2_4 + 1000 r_2_4_7 >= 2
- s_2_7 - s_2_4 - 1000 r_2_4_7 >= -1001
t_2_7 - t_2_4 + 1000.000000 u_2_4_7 - 0.000000 s_2_4  + 2000.000000 r_2_4_7 > 21.078900
t_1_8 - t_1_7 - 1000.000000 s_1_7  > -989.959600
t_1_8 - t_2_7 - 1000.000000 s_2_7  > -982.780000
t_2_8 - t_1_7 - 1000.000000 s_1_7  > -989.959600
t_2_8 - t_2_7 - 1000.000000 s_2_7  > -982.780000
s_1_7 + s_1_10 + 1000 r_1_7_10 >= 2
- s_1_7 - s_1_10 - 1000 r_1_7_10 >= -1001
t_1_7 - t_1_10 - 1000.000000 u_1_7_10 - 0.000000 s_1_10  + 2000.000000 r_1_7_10 > -998.682400
s_2_7 + s_2_10 + 1000 r_2_7_10 >= 2
- s_2_7 - s_2_10 - 1000 r_2_7_10 >= -1001
t_2_7 - t_2_10 - 1000.000000 u_2_7_10 - 0.000000 s_2_10  + 2000.000000 r_2_7_10 > -994.060300
s_1_7 + s_1_11 + 1000 r_1_7_11 >= 2
- s_1_7 - s_1_11 - 1000 r_1_7_11 >= -1001
t_1_7 - t_1_11 - 1000.000000 u_1_7_11 - 0.000000 s_1_11  + 2000.000000 r_1_7_11 > -993.730900
s_2_7 + s_2_11 + 1000 r_2_7_11 >= 2
- s_2_7 - s_2_11 - 1000 r_2_7_11 >= -1001
t_2_7 - t_2_11 - 1000.000000 u_2_7_11 - 0.000000 s_2_11  + 2000.000000 r_2_7_11 > -993.639000
s_1_8 + s_1_1 + 1000 r_1_1_8 >= 2
- s_1_8 - s_1_1 - 1000 r_1_1_8 >= -1001
t_1_8 - t_1_1 + 1000.000000 u_1_1_8 - 0.000000 s_1_1  + 2000.000000 r_1_1_8 > 14.547000
s_2_8 + s_2_1 + 1000 r_2_1_8 >= 2
- s_2_8 - s_2_1 - 1000 r_2_1_8 >= -1001
t_2_8 - t_2_1 + 1000.000000 u_2_1_8 - 0.000000 s_2_1  + 2000.000000 r_2_1_8 > 17.054600
s_1_8 + s_1_2 + 1000 r_1_2_8 >= 2
- s_1_8 - s_1_2 - 1000 r_1_2_8 >= -1001
t_1_8 - t_1_2 + 1000.000000 u_1_2_8 - 0.000000 s_1_2  + 2000.000000 r_1_2_8 > 8.542700
s_2_8 + s_2_2 + 1000 r_2_2_8 >= 2
- s_2_8 - s_2_2 - 1000 r_2_2_8 >= -1001
t_2_8 - t_2_2 + 1000.000000 u_2_2_8 - 0.000000 s_2_2  + 2000.000000 r_2_2_8 > 9.233200
s_1_8 + s_1_3 + 1000 r_1_3_8 >= 2
- s_1_8 - s_1_3 - 1000 r_1_3_8 >= -1001
t_1_8 - t_1_3 + 1000.000000 u_1_3_8 - 0.000000 s_1_3  + 2000.000000 r_1_3_8 > 10.018800
s_2_8 + s_2_3 + 1000 r_2_3_8 >= 2
- s_2_8 - s_2_3 - 1000 r_2_3_8 >= -1001
t_2_8 - t_2_3 + 1000.000000 u_2_3_8 - 0.000000 s_2_3  + 2000.000000 r_2_3_8 > 16.748300
s_1_8 + s_1_4 + 1000 r_1_4_8 >= 2
- s_1_8 - s_1_4 - 1000 r_1_4_8 >= -1001
t_1_8 - t_1_4 + 1000.000000 u_1_4_8 - 0.000000 s_1_4  + 2000.000000 r_1_4_8 > 14.224400
s_2_8 + s_2_4 + 1000 r_2_4_8 >= 2
- s_2_8 - s_2_4 - 1000 r_2_4_8 >= -1001
t_2_8 - t_2_4 + 1000.000000 u_2_4_8 - 0.000000 s_2_4  + 2000.000000 r_2_4_8 > 21.078900
t_1_9 - t_1_8 - 1000.000000 s_1_8  > -987.898900
t_1_9 - t_2_8 - 1000.000000 s_2_8  > -980.728700
t_2_9 - t_1_8 - 1000.000000 s_1_8  > -987.898900
t_2_9 - t_2_8 - 1000.000000 s_2_8  > -980.728700
s_1_8 + s_1_10 + 1000 r_1_8_10 >= 2
- s_1_8 - s_1_10 - 1000 r_1_8_10 >= -1001
t_1_8 - t_1_10 - 1000.000000 u_1_8_10 - 0.000000 s_1_10  + 2000.000000 r_1_8_10 > -998.682400
s_2_8 + s_2_10 + 1000 r_2_8_10 >= 2
- s_2_8 - s_2_10 - 1000 r_2_8_10 >= -1001
t_2_8 - t_2_10 - 1000.000000 u_2_8_10 - 0.000000 s_2_10  + 2000.000000 r_2_8_10 > -994.060300
s_1_8 + s_1_11 + 1000 r_1_8_11 >= 2
- s_1_8 - s_1_11 - 1000 r_1_8_11 >= -1001
t_1_8 - t_1_11 - 1000.000000 u_1_8_11 - 0.000000 s_1_11  + 2000.000000 r_1_8_11 > -993.730900
s_2_8 + s_2_11 + 1000 r_2_8_11 >= 2
- s_2_8 - s_2_11 - 1000 r_2_8_11 >= -1001
t_2_8 - t_2_11 - 1000.000000 u_2_8_11 - 0.000000 s_2_11  + 2000.000000 r_2_8_11 > -993.639000
s_1_9 + s_1_1 + 1000 r_1_1_9 >= 2
- s_1_9 - s_1_1 - 1000 r_1_1_9 >= -1001
t_1_9 - t_1_1 + 1000.000000 u_1_1_9 - 0.000000 s_1_1  + 2000.000000 r_1_1_9 > 14.547000
s_2_9 + s_2_1 + 1000 r_2_1_9 >= 2
- s_2_9 - s_2_1 - 1000 r_2_1_9 >= -1001
t_2_9 - t_2_1 + 1000.000000 u_2_1_9 - 0.000000 s_2_1  + 2000.000000 r_2_1_9 > 17.054600
s_1_9 + s_1_2 + 1000 r_1_2_9 >= 2
- s_1_9 - s_1_2 - 1000 r_1_2_9 >= -1001
t_1_9 - t_1_2 + 1000.000000 u_1_2_9 - 0.000000 s_1_2  + 2000.000000 r_1_2_9 > 8.542700
s_2_9 + s_2_2 + 1000 r_2_2_9 >= 2
- s_2_9 - s_2_2 - 1000 r_2_2_9 >= -1001
t_2_9 - t_2_2 + 1000.000000 u_2_2_9 - 0.000000 s_2_2  + 2000.000000 r_2_2_9 > 9.233200
s_1_9 + s_1_3 + 1000 r_1_3_9 >= 2
- s_1_9 - s_1_3 - 1000 r_1_3_9 >= -1001
t_1_9 - t_1_3 + 1000.000000 u_1_3_9 - 0.000000 s_1_3  + 2000.000000 r_1_3_9 > 10.018800
s_2_9 + s_2_3 + 1000 r_2_3_9 >= 2
- s_2_9 - s_2_3 - 1000 r_2_3_9 >= -1001
t_2_9 - t_2_3 + 1000.000000 u_2_3_9 - 0.000000 s_2_3  + 2000.000000 r_2_3_9 > 16.748300
s_1_9 + s_1_4 + 1000 r_1_4_9 >= 2
- s_1_9 - s_1_4 - 1000 r_1_4_9 >= -1001
t_1_9 - t_1_4 + 1000.000000 u_1_4_9 - 0.000000 s_1_4  + 2000.000000 r_1_4_9 > 14.224400
s_2_9 + s_2_4 + 1000 r_2_4_9 >= 2
- s_2_9 - s_2_4 - 1000 r_2_4_9 >= -1001
t_2_9 - t_2_4 + 1000.000000 u_2_4_9 - 0.000000 s_2_4  + 2000.000000 r_2_4_9 > 21.078900
s_1_9 + s_1_10 + 1000 r_1_9_10 >= 2
- s_1_9 - s_1_10 - 1000 r_1_9_10 >= -1001
t_1_9 - t_1_10 - 1000.000000 u_1_9_10 - 0.000000 s_1_10  + 2000.000000 r_1_9_10 > -998.682400
s_2_9 + s_2_10 + 1000 r_2_9_10 >= 2
- s_2_9 - s_2_10 - 1000 r_2_9_10 >= -1001
t_2_9 - t_2_10 - 1000.000000 u_2_9_10 - 0.000000 s_2_10  + 2000.000000 r_2_9_10 > -994.060300
s_1_9 + s_1_11 + 1000 r_1_9_11 >= 2
- s_1_9 - s_1_11 - 1000 r_1_9_11 >= -1001
t_1_9 - t_1_11 - 1000.000000 u_1_9_11 - 0.000000 s_1_11  + 2000.000000 r_1_9_11 > -993.730900
s_2_9 + s_2_11 + 1000 r_2_9_11 >= 2
- s_2_9 - s_2_11 - 1000 r_2_9_11 >= -1001
t_2_9 - t_2_11 - 1000.000000 u_2_9_11 - 0.000000 s_2_11  + 2000.000000 r_2_9_11 > -993.639000
t_1_12 - t_1_9 - 1000.000000 s_1_9  > -986.612400
t_1_12 - t_2_9 - 1000.000000 s_2_9  > -978.483300
t_2_12 - t_1_9 - 1000.000000 s_1_9  > -986.612400
t_2_12 - t_2_9 - 1000.000000 s_2_9  > -978.483300
s_1_10 + s_1_1 + 1000 r_1_1_10 >= 2
- s_1_10 - s_1_1 - 1000 r_1_1_10 >= -1001
t_1_10 - t_1_1 + 1000.000000 u_1_1_10 - 0.000000 s_1_1  + 2000.000000 r_1_1_10 > 14.547000
s_2_10 + s_2_1 + 1000 r_2_1_10 >= 2
- s_2_10 - s_2_1 - 1000 r_2_1_10 >= -1001
t_2_10 - t_2_1 + 1000.000000 u_2_1_10 - 0.000000 s_2_1  + 2000.000000 r_2_1_10 > 17.054600
s_1_10 + s_1_2 + 1000 r_1_2_10 >= 2
- s_1_10 - s_1_2 - 1000 r_1_2_10 >= -1001
t_1_10 - t_1_2 + 1000.000000 u_1_2_10 - 0.000000 s_1_2  + 2000.000000 r_1_2_10 > 8.542700
s_2_10 + s_2_2 + 1000 r_2_2_10 >= 2
- s_2_10 - s_2_2 - 1000 r_2_2_10 >= -1001
t_2_10 - t_2_2 + 1000.000000 u_2_2_10 - 0.000000 s_2_2  + 2000.000000 r_2_2_10 > 9.233200
s_1_10 + s_1_3 + 1000 r_1_3_10 >= 2
- s_1_10 - s_1_3 - 1000 r_1_3_10 >= -1001
t_1_10 - t_1_3 + 1000.000000 u_1_3_10 - 0.000000 s_1_3  + 2000.000000 r_1_3_10 > 10.018800
s_2_10 + s_2_3 + 1000 r_2_3_10 >= 2
- s_2_10 - s_2_3 - 1000 r_2_3_10 >= -1001
t_2_10 - t_2_3 + 1000.000000 u_2_3_10 - 0.000000 s_2_3  + 2000.000000 r_2_3_10 > 16.748300
s_1_10 + s_1_4 + 1000 r_1_4_10 >= 2
- s_1_10 - s_1_4 - 1000 r_1_4_10 >= -1001
t_1_10 - t_1_4 + 1000.000000 u_1_4_10 - 0.000000 s_1_4  + 2000.000000 r_1_4_10 > 14.224400
s_2_10 + s_2_4 + 1000 r_2_4_10 >= 2
- s_2_10 - s_2_4 - 1000 r_2_4_10 >= -1001
t_2_10 - t_2_4 + 1000.000000 u_2_4_10 - 0.000000 s_2_4  + 2000.000000 r_2_4_10 > 21.078900
s_1_10 + s_1_5 + 1000 r_1_5_10 >= 2
- s_1_10 - s_1_5 - 1000 r_1_5_10 >= -1001
t_1_10 - t_1_5 + 1000.000000 u_1_5_10 - 0.000000 s_1_5  + 2000.000000 r_1_5_10 > 8.501700
s_2_10 + s_2_5 + 1000 r_2_5_10 >= 2
- s_2_10 - s_2_5 - 1000 r_2_5_10 >= -1001
t_2_10 - t_2_5 + 1000.000000 u_2_5_10 - 0.000000 s_2_5  + 2000.000000 r_2_5_10 > 8.855600
s_1_10 + s_1_6 + 1000 r_1_6_10 >= 2
- s_1_10 - s_1_6 - 1000 r_1_6_10 >= -1001
t_1_10 - t_1_6 + 1000.000000 u_1_6_10 - 0.000000 s_1_6  + 2000.000000 r_1_6_10 > 9.064200
s_2_10 + s_2_6 + 1000 r_2_6_10 >= 2
- s_2_10 - s_2_6 - 1000 r_2_6_10 >= -1001
t_2_10 - t_2_6 + 1000.000000 u_2_6_10 - 0.000000 s_2_6  + 2000.000000 r_2_6_10 > 13.941400
s_1_10 + s_1_7 + 1000 r_1_7_10 >= 2
- s_1_10 - s_1_7 - 1000 r_1_7_10 >= -1001
t_1_10 - t_1_7 + 1000.000000 u_1_7_10 - 0.000000 s_1_7  + 2000.000000 r_1_7_10 > 10.040400
s_2_10 + s_2_7 + 1000 r_2_7_10 >= 2
- s_2_10 - s_2_7 - 1000 r_2_7_10 >= -1001
t_2_10 - t_2_7 + 1000.000000 u_2_7_10 - 0.000000 s_2_7  + 2000.000000 r_2_7_10 > 17.220000
s_1_10 + s_1_8 + 1000 r_1_8_10 >= 2
- s_1_10 - s_1_8 - 1000 r_1_8_10 >= -1001
t_1_10 - t_1_8 + 1000.000000 u_1_8_10 - 0.000000 s_1_8  + 2000.000000 r_1_8_10 > 12.101100
s_2_10 + s_2_8 + 1000 r_2_8_10 >= 2
- s_2_10 - s_2_8 - 1000 r_2_8_10 >= -1001
t_2_10 - t_2_8 + 1000.000000 u_2_8_10 - 0.000000 s_2_8  + 2000.000000 r_2_8_10 > 19.271300
s_1_10 + s_1_9 + 1000 r_1_9_10 >= 2
- s_1_10 - s_1_9 - 1000 r_1_9_10 >= -1001
t_1_10 - t_1_9 + 1000.000000 u_1_9_10 - 0.000000 s_1_9  + 2000.000000 r_1_9_10 > 13.387600
s_2_10 + s_2_9 + 1000 r_2_9_10 >= 2
- s_2_10 - s_2_9 - 1000 r_2_9_10 >= -1001
t_2_10 - t_2_9 + 1000.000000 u_2_9_10 - 0.000000 s_2_9  + 2000.000000 r_2_9_10 > 21.516700
t_1_11 - t_1_10 - 1000.000000 s_1_10  > -998.682400
t_1_11 - t_2_10 - 1000.000000 s_2_10  > -994.060300
t_2_11 - t_1_10 - 1000.000000 s_1_10  > -998.682400
t_2_11 - t_2_10 - 1000.000000 s_2_10  > -994.060300
s_1_11 + s_1_1 + 1000 r_1_1_11 >= 2
- s_1_11 - s_1_1 - 1000 r_1_1_11 >= -1001
t_1_11 - t_1_1 + 1000.000000 u_1_1_11 - 0.000000 s_1_1  + 2000.000000 r_1_1_11 > 14.547000
s_2_11 + s_2_1 + 1000 r_2_1_11 >= 2
- s_2_11 - s_2_1 - 1000 r_2_1_11 >= -1001
t_2_11 - t_2_1 + 1000.000000 u_2_1_11 - 0.000000 s_2_1  + 2000.000000 r_2_1_11 > 17.054600
s_1_11 + s_1_2 + 1000 r_1_2_11 >= 2
- s_1_11 - s_1_2 - 1000 r_1_2_11 >= -1001
t_1_11 - t_1_2 + 1000.000000 u_1_2_11 - 0.000000 s_1_2  + 2000.000000 r_1_2_11 > 8.542700
s_2_11 + s_2_2 + 1000 r_2_2_11 >= 2
- s_2_11 - s_2_2 - 1000 r_2_2_11 >= -1001
t_2_11 - t_2_2 + 1000.000000 u_2_2_11 - 0.000000 s_2_2  + 2000.000000 r_2_2_11 > 9.233200
s_1_11 + s_1_3 + 1000 r_1_3_11 >= 2
- s_1_11 - s_1_3 - 1000 r_1_3_11 >= -1001
t_1_11 - t_1_3 + 1000.000000 u_1_3_11 - 0.000000 s_1_3  + 2000.000000 r_1_3_11 > 10.018800
s_2_11 + s_2_3 + 1000 r_2_3_11 >= 2
- s_2_11 - s_2_3 - 1000 r_2_3_11 >= -1001
t_2_11 - t_2_3 + 1000.000000 u_2_3_11 - 0.000000 s_2_3  + 2000.000000 r_2_3_11 > 16.748300
s_1_11 + s_1_4 + 1000 r_1_4_11 >= 2
- s_1_11 - s_1_4 - 1000 r_1_4_11 >= -1001
t_1_11 - t_1_4 + 1000.000000 u_1_4_11 - 0.000000 s_1_4  + 2000.000000 r_1_4_11 > 14.224400
s_2_11 + s_2_4 + 1000 r_2_4_11 >= 2
- s_2_11 - s_2_4 - 1000 r_2_4_11 >= -1001
t_2_11 - t_2_4 + 1000.000000 u_2_4_11 - 0.000000 s_2_4  + 2000.000000 r_2_4_11 > 21.078900
s_1_11 + s_1_5 + 1000 r_1_5_11 >= 2
- s_1_11 - s_1_5 - 1000 r_1_5_11 >= -1001
t_1_11 - t_1_5 + 1000.000000 u_1_5_11 - 0.000000 s_1_5  + 2000.000000 r_1_5_11 > 8.501700
s_2_11 + s_2_5 + 1000 r_2_5_11 >= 2
- s_2_11 - s_2_5 - 1000 r_2_5_11 >= -1001
t_2_11 - t_2_5 + 1000.000000 u_2_5_11 - 0.000000 s_2_5  + 2000.000000 r_2_5_11 > 8.855600
s_1_11 + s_1_6 + 1000 r_1_6_11 >= 2
- s_1_11 - s_1_6 - 1000 r_1_6_11 >= -1001
t_1_11 - t_1_6 + 1000.000000 u_1_6_11 - 0.000000 s_1_6  + 2000.000000 r_1_6_11 > 9.064200
s_2_11 + s_2_6 + 1000 r_2_6_11 >= 2
- s_2_11 - s_2_6 - 1000 r_2_6_11 >= -1001
t_2_11 - t_2_6 + 1000.000000 u_2_6_11 - 0.000000 s_2_6  + 2000.000000 r_2_6_11 > 13.941400
s_1_11 + s_1_7 + 1000 r_1_7_11 >= 2
- s_1_11 - s_1_7 - 1000 r_1_7_11 >= -1001
t_1_11 - t_1_7 + 1000.000000 u_1_7_11 - 0.000000 s_1_7  + 2000.000000 r_1_7_11 > 10.040400
s_2_11 + s_2_7 + 1000 r_2_7_11 >= 2
- s_2_11 - s_2_7 - 1000 r_2_7_11 >= -1001
t_2_11 - t_2_7 + 1000.000000 u_2_7_11 - 0.000000 s_2_7  + 2000.000000 r_2_7_11 > 17.220000
s_1_11 + s_1_8 + 1000 r_1_8_11 >= 2
- s_1_11 - s_1_8 - 1000 r_1_8_11 >= -1001
t_1_11 - t_1_8 + 1000.000000 u_1_8_11 - 0.000000 s_1_8  + 2000.000000 r_1_8_11 > 12.101100
s_2_11 + s_2_8 + 1000 r_2_8_11 >= 2
- s_2_11 - s_2_8 - 1000 r_2_8_11 >= -1001
t_2_11 - t_2_8 + 1000.000000 u_2_8_11 - 0.000000 s_2_8  + 2000.000000 r_2_8_11 > 19.271300
s_1_11 + s_1_9 + 1000 r_1_9_11 >= 2
- s_1_11 - s_1_9 - 1000 r_1_9_11 >= -1001
t_1_11 - t_1_9 + 1000.000000 u_1_9_11 - 0.000000 s_1_9  + 2000.000000 r_1_9_11 > 13.387600
s_2_11 + s_2_9 + 1000 r_2_9_11 >= 2
- s_2_11 - s_2_9 - 1000 r_2_9_11 >= -1001
t_2_11 - t_2_9 + 1000.000000 u_2_9_11 - 0.000000 s_2_9  + 2000.000000 r_2_9_11 > 21.516700
t_1_12 - t_1_11 - 1000.000000 s_1_11  > -993.730900
t_1_12 - t_2_11 - 1000.000000 s_2_11  > -993.639000
t_2_12 - t_1_11 - 1000.000000 s_1_11  > -993.730900
t_2_12 - t_2_11 - 1000.000000 s_2_11  > -993.639000
Binary
s_1_1
s_2_1
s_1_2
s_2_2
s_1_3
s_2_3
s_1_4
s_2_4
s_1_5
s_2_5
s_1_6
s_2_6
s_1_7
s_2_7
s_1_8
s_2_8
s_1_9
s_2_9
s_1_10
s_2_10
s_1_11
s_2_11
s_1_12
s_2_12
u_1_1_2
r_1_1_2
u_2_1_2
r_2_1_2
u_1_1_3
r_1_1_3
u_2_1_3
r_2_1_3
u_1_1_4
r_1_1_4
u_2_1_4
r_2_1_4
u_1_1_5
r_1_1_5
u_2_1_5
r_2_1_5
u_1_1_6
r_1_1_6
u_2_1_6
r_2_1_6
u_1_1_7
r_1_1_7
u_2_1_7
r_2_1_7
u_1_1_8
r_1_1_8
u_2_1_8
r_2_1_8
u_1_1_9
r_1_1_9
u_2_1_9
r_2_1_9
u_1_1_10
r_1_1_10
u_2_1_10
r_2_1_10
u_1_1_11
r_1_1_11
u_2_1_11
r_2_1_11
u_1_2_5
r_1_2_5
u_2_2_5
r_2_2_5
u_1_2_6
r_1_2_6
u_2_2_6
r_2_2_6
u_1_2_7
r_1_2_7
u_2_2_7
r_2_2_7
u_1_2_8
r_1_2_8
u_2_2_8
r_2_2_8
u_1_2_9
r_1_2_9
u_2_2_9
r_2_2_9
u_1_2_10
r_1_2_10
u_2_2_10
r_2_2_10
u_1_2_11
r_1_2_11
u_2_2_11
r_2_2_11
u_1_3_5
r_1_3_5
u_2_3_5
r_2_3_5
u_1_3_6
r_1_3_6
u_2_3_6
r_2_3_6
u_1_3_7
r_1_3_7
u_2_3_7
r_2_3_7
u_1_3_8
r_1_3_8
u_2_3_8
r_2_3_8
u_1_3_9
r_1_3_9
u_2_3_9
r_2_3_9
u_1_3_10
r_1_3_10
u_2_3_10
r_2_3_10
u_1_3_11
r_1_3_11
u_2_3_11
r_2_3_11
u_1_4_5
r_1_4_5
u_2_4_5
r_2_4_5
u_1_4_6
r_1_4_6
u_2_4_6
r_2_4_6
u_1_4_7
r_1_4_7
u_2_4_7
r_2_4_7
u_1_4_8
r_1_4_8
u_2_4_8
r_2_4_8
u_1_4_9
r_1_4_9
u_2_4_9
r_2_4_9
u_1_4_10
r_1_4_10
u_2_4_10
r_2_4_10
u_1_4_11
r_1_4_11
u_2_4_11
r_2_4_11
u_1_5_10
r_1_5_10
u_2_5_10
r_2_5_10
u_1_5_11
r_1_5_11
u_2_5_11
r_2_5_11
u_1_6_10
r_1_6_10
u_2_6_10
r_2_6_10
u_1_6_11
r_1_6_11
u_2_6_11
r_2_6_11
u_1_7_10
r_1_7_10
u_2_7_10
r_2_7_10
u_1_7_11
r_1_7_11
u_2_7_11
r_2_7_11
u_1_8_10
r_1_8_10
u_2_8_10
r_2_8_10
u_1_8_11
r_1_8_11
u_2_8_11
r_2_8_11
u_1_9_10
r_1_9_10
u_2_9_10
r_2_9_10
u_1_9_11
r_1_9_11
u_2_9_11
r_2_9_11

End
